# Objective value = 3.1111000000000008e+03
I_0_0 1214
I_0_1 1296
I_0_2 1473
I_0_3 1931
I_1_0 126
I_1_1 126
I_1_2 6.3000000000000007e+01
I_1_3 1.0214051826551440e-14
I_2_0 22
I_2_1 0
I_2_2 22
I_2_3 0
I_3_0 116
I_3_1 116
I_3_2 58
I_3_3 0
I_4_0 52
I_4_1 5.1999999999999922e+01
I_4_2 2.5999999999999922e+01
I_4_3 -6.0732813819148092e-13
I_5_0 18
I_5_1 18
I_5_2 18
I_5_3 0
I_6_0 99
I_6_1 99
I_6_2 99
I_6_3 0
I_7_0 78
I_7_1 3.9000000000000014e+01
I_7_2 7.8000000000000014e+01
I_7_3 3.9000000000000014e+01
I_8_0 21
I_8_1 9.0344398628872113e-15
I_8_2 21
I_8_3 0
I_9_0 64
I_9_1 6.3999999999999851e+01
I_9_2 3.1999999999999904e+01
I_9_3 4.3876013933186186e-13
I_10_0 160
I_10_1 160
I_10_2 8.0000000000000014e+01
I_10_3 1.1102230246251565e-14
q_1_0_0 63
q_1_0_1 1.0214051826551440e-14
q_1_0_2 0
q_1_1_0 0
q_1_1_1 0
q_1_1_2 0
q_1_2_0 0
q_1_2_1 0
q_1_2_2 0
q_1_3_0 0
q_1_3_1 0
q_1_3_2 0
q_2_0_0 0
q_2_0_1 44
q_2_0_2 0
q_2_1_0 0
q_2_1_1 6.6613381477509392e-15
q_2_1_2 0
q_2_2_0 0
q_2_2_1 0
q_2_2_2 0
q_2_3_0 0
q_2_3_1 0
q_2_3_2 0
q_3_0_0 0
q_3_0_1 0
q_3_0_2 0
q_3_1_0 58
q_3_1_1 0
q_3_1_2 0
q_3_2_0 0
q_3_2_1 1.7763568394002505e-15
q_3_2_2 1.7763568394002505e-15
q_3_3_0 0
q_3_3_1 0
q_3_3_2 0
q_4_0_0 0
q_4_0_1 0
q_4_0_2 9.6811447747313650e-14
q_4_1_0 0
q_4_1_1 0
q_4_1_2 0
q_4_2_0 2.5999999999999915e+01
q_4_2_1 0
q_4_2_2 0
q_4_3_0 0
q_4_3_1 0
q_4_3_2 0
q_5_0_0 0
q_5_0_1 1.8000000000000004e+01
q_5_0_2 0
q_5_1_0 0
q_5_1_1 2.5202062658991053e-14
q_5_1_2 0
q_5_2_0 18
q_5_2_1 0
q_5_2_2 0
q_5_3_0 0
q_5_3_1 0
q_5_3_2 0
q_6_0_0 0
q_6_0_1 9.8999999999999986e+01
q_6_0_2 0
q_6_1_0 99
q_6_1_1 4.1217029789208937e-15
q_6_1_2 0
q_6_2_0 0
q_6_2_1 0
q_6_2_2 0
q_6_3_0 0
q_6_3_1 0
q_6_3_2 0
q_7_0_0 0
q_7_0_1 0
q_7_0_2 0
q_7_1_0 0
q_7_1_1 78
q_7_1_2 0
q_7_2_0 1.5695778010638151e-14
q_7_2_1 0
q_7_2_2 0
q_7_3_0 0
q_7_3_1 0
q_7_3_2 0
q_8_0_0 0
q_8_0_1 0
q_8_0_2 1.7763568394002505e-15
q_8_1_0 0
q_8_1_1 4.1999999999999986e+01
q_8_1_2 0
q_8_2_0 9.0344398628872113e-15
q_8_2_1 0
q_8_2_2 -1.7763568394002505e-15
q_8_3_0 0
q_8_3_1 0
q_8_3_2 0
q_9_0_0 0
q_9_0_1 0
q_9_0_2 -9.7699626167013776e-14
q_9_1_0 0
q_9_1_1 5.4845017416482733e-14
q_9_1_2 0
q_9_2_0 3.1999999999999847e+01
q_9_2_1 0
q_9_2_2 0
q_9_3_0 0
q_9_3_1 0
q_9_3_2 0
q_10_0_0 0
q_10_0_1 0
q_10_0_2 0
q_10_1_0 0
q_10_1_1 9.3258734068513149e-15
q_10_1_2 0
q_10_2_0 80
q_10_2_1 0
q_10_2_2 0
q_10_3_0 0
q_10_3_1 0
q_10_3_2 0
y_0_0_0 1
y_0_0_1 1
y_0_0_2 0
y_0_1_0 1
y_0_1_1 1
y_0_1_2 0
y_0_2_0 1
y_0_2_1 0
y_0_2_2 0
y_0_3_0 0
y_0_3_1 0
y_0_3_2 0
y_1_0_0 1
y_1_0_1 1.5612511283791264e-16
y_1_0_2 0
y_1_1_0 0
y_1_1_1 0
y_1_1_2 0
y_1_2_0 0
y_1_2_1 0
y_1_2_2 0
y_1_3_0 0
y_1_3_1 0
y_1_3_2 0
y_2_0_0 0
y_2_0_1 9.9999999999999989e-01
y_2_0_2 0
y_2_1_0 0
y_2_1_1 1.5265566588595902e-16
y_2_1_2 0
y_2_2_0 0
y_2_2_1 0
y_2_2_2 0
y_2_3_0 0
y_2_3_1 0
y_2_3_2 0
y_3_0_0 0
y_3_0_1 0
y_3_0_2 0
y_3_1_0 1
y_3_1_1 0
y_3_1_2 0
y_3_2_0 0
y_3_2_1 0
y_3_2_2 0
y_3_3_0 0
y_3_3_1 0
y_3_3_2 0
y_4_0_0 0
y_4_0_1 6.8001160258290838e-16
y_4_0_2 3.7192471324942744e-15
y_4_1_0 0
y_4_1_1 0
y_4_1_2 0
y_4_2_0 9.9999999999999667e-01
y_4_2_1 0
y_4_2_2 0
y_4_3_0 0
y_4_3_1 0
y_4_3_2 0
y_5_0_0 0
y_5_0_1 9.9999999999999967e-01
y_5_0_2 0
y_5_1_0 0
y_5_1_1 2.7755575615628914e-16
y_5_1_2 0
y_5_2_0 1
y_5_2_1 0
y_5_2_2 0
y_5_3_0 0
y_5_3_1 0
y_5_3_2 0
y_6_0_0 0
y_6_0_1 9.9999999999999989e-01
y_6_0_2 0
y_6_1_0 1
y_6_1_1 4.1633363423443370e-17
y_6_1_2 0
y_6_2_0 0
y_6_2_1 0
y_6_2_2 0
y_6_3_0 0
y_6_3_1 0
y_6_3_2 0
y_7_0_0 0
y_7_0_1 0
y_7_0_2 0
y_7_1_0 0
y_7_1_1 1
y_7_1_2 0
y_7_2_0 4.0245584642661925e-16
y_7_2_1 0
y_7_2_2 0
y_7_3_0 0
y_7_3_1 0
y_7_3_2 0
y_8_0_0 0
y_8_0_1 0
y_8_0_2 0
y_8_1_0 0
y_8_1_1 1
y_8_1_2 0
y_8_2_0 4.3021142204224816e-16
y_8_2_1 0
y_8_2_2 0
y_8_3_0 0
y_8_3_1 0
y_8_3_2 0
y_9_0_0 0
y_9_0_1 0
y_9_0_2 3.7192471324942744e-15
y_9_1_0 0
y_9_1_1 8.5695339713254270e-16
y_9_1_2 0
y_9_2_0 9.9999999999999523e-01
y_9_2_1 0
y_9_2_2 0
y_9_3_0 0
y_9_3_1 0
y_9_3_2 0
y_10_0_0 0
y_10_0_1 0
y_10_0_2 0
y_10_1_0 0
y_10_1_1 1.4571677198205180e-16
y_10_1_2 0
y_10_2_0 1
y_10_2_1 0
y_10_2_2 0
y_10_3_0 0
y_10_3_1 0
y_10_3_2 0
x_0_1_0_0 2
x_0_1_0_1 3.1225022567582528e-16
x_0_1_0_2 0
x_0_1_1_0 0
x_0_1_1_1 0
x_0_1_1_2 0
x_0_1_2_0 0
x_0_1_2_1 0
x_0_1_2_2 0
x_0_1_3_0 0
x_0_1_3_1 0
x_0_1_3_2 0
x_0_2_0_0 0
x_0_2_0_1 1.0000000000000009e+00
x_0_2_0_2 0
x_0_2_1_0 0
x_0_2_1_1 0
x_0_2_1_2 0
x_0_2_2_0 0
x_0_2_2_1 0
x_0_2_2_2 0
x_0_2_3_0 0
x_0_2_3_1 0
x_0_2_3_2 0
x_0_3_0_0 0
x_0_3_0_1 0
x_0_3_0_2 0
x_0_3_1_0 1
x_0_3_1_1 0
x_0_3_1_2 0
x_0_3_2_0 0
x_0_3_2_1 0
x_0_3_2_2 0
x_0_3_3_0 0
x_0_3_3_1 0
x_0_3_3_2 0
x_0_4_0_0 0
x_0_4_0_1 0
x_0_4_0_2 7.4384942649885488e-15
x_0_4_1_0 0
x_0_4_1_1 0
x_0_4_1_2 0
x_0_4_2_0 -2.6922908347160046e-15
x_0_4_2_1 0
x_0_4_2_2 0
x_0_4_3_0 0
x_0_4_3_1 0
x_0_4_3_2 0
x_0_5_0_0 0
x_0_5_0_1 9.9999999999999856e-01
x_0_5_0_2 0
x_0_5_1_0 0
x_0_5_1_1 0
x_0_5_1_2 0
x_0_5_2_0 1.0000000000000004e+00
x_0_5_2_1 0
x_0_5_2_2 0
x_0_5_3_0 0
x_0_5_3_1 0
x_0_5_3_2 0
x_0_6_0_0 0
x_0_6_0_1 0
x_0_6_0_2 0
x_0_6_1_0 1
x_0_6_1_1 0
x_0_6_1_2 0
x_0_6_2_0 0
x_0_6_2_1 0
x_0_6_2_2 0
x_0_6_3_0 0
x_0_6_3_1 0
x_0_6_3_2 0
x_0_7_0_0 0
x_0_7_0_1 0
x_0_7_0_2 0
x_0_7_1_0 0
x_0_7_1_1 9.9999999999999956e-01
x_0_7_1_2 0
x_0_7_2_0 1.2628786905111156e-15
x_0_7_2_1 0
x_0_7_2_2 0
x_0_7_3_0 0
x_0_7_3_1 0
x_0_7_3_2 0
x_0_8_0_0 0
x_0_8_0_1 0
x_0_8_0_2 0
x_0_8_1_0 0
x_0_8_1_1 1
x_0_8_1_2 0
x_0_8_2_0 -3.3306690738754696e-16
x_0_8_2_1 0
x_0_8_2_2 0
x_0_8_3_0 0
x_0_8_3_1 0
x_0_8_3_2 0
x_0_9_0_0 0
x_0_9_0_1 0
x_0_9_0_2 0
x_0_9_1_0 0
x_0_9_1_1 0
x_0_9_1_2 0
x_0_9_2_0 -1.6098233857064770e-15
x_0_9_2_1 0
x_0_9_2_2 0
x_0_9_3_0 0
x_0_9_3_1 0
x_0_9_3_2 0
x_0_10_0_0 0
x_0_10_0_1 0
x_0_10_0_2 -7.4384942649885488e-15
x_0_10_1_0 0
x_0_10_1_1 2.9143354396410359e-16
x_0_10_1_2 0
x_0_10_2_0 1.0000000000000047e+00
x_0_10_2_1 0
x_0_10_2_2 0
x_0_10_3_0 0
x_0_10_3_1 0
x_0_10_3_2 0
x_1_2_0_0 0
x_1_2_0_1 0
x_1_2_0_2 0
x_1_2_1_0 0
x_1_2_1_1 0
x_1_2_1_2 0
x_1_2_2_0 0
x_1_2_2_1 0
x_1_2_2_2 0
x_1_2_3_0 0
x_1_2_3_1 0
x_1_2_3_2 0
x_1_3_0_0 0
x_1_3_0_1 0
x_1_3_0_2 0
x_1_3_1_0 0
x_1_3_1_1 0
x_1_3_1_2 0
x_1_3_2_0 0
x_1_3_2_1 0
x_1_3_2_2 0
x_1_3_3_0 0
x_1_3_3_1 0
x_1_3_3_2 0
x_1_4_0_0 0
x_1_4_0_1 0
x_1_4_0_2 0
x_1_4_1_0 0
x_1_4_1_1 0
x_1_4_1_2 0
x_1_4_2_0 0
x_1_4_2_1 0
x_1_4_2_2 0
x_1_4_3_0 0
x_1_4_3_1 0
x_1_4_3_2 0
x_1_5_0_0 0
x_1_5_0_1 0
x_1_5_0_2 0
x_1_5_1_0 0
x_1_5_1_1 0
x_1_5_1_2 0
x_1_5_2_0 0
x_1_5_2_1 0
x_1_5_2_2 0
x_1_5_3_0 0
x_1_5_3_1 0
x_1_5_3_2 0
x_1_6_0_0 0
x_1_6_0_1 0
x_1_6_0_2 0
x_1_6_1_0 0
x_1_6_1_1 0
x_1_6_1_2 0
x_1_6_2_0 0
x_1_6_2_1 0
x_1_6_2_2 0
x_1_6_3_0 0
x_1_6_3_1 0
x_1_6_3_2 0
x_1_7_0_0 0
x_1_7_0_1 0
x_1_7_0_2 0
x_1_7_1_0 0
x_1_7_1_1 0
x_1_7_1_2 0
x_1_7_2_0 0
x_1_7_2_1 0
x_1_7_2_2 0
x_1_7_3_0 0
x_1_7_3_1 0
x_1_7_3_2 0
x_1_8_0_0 0
x_1_8_0_1 0
x_1_8_0_2 0
x_1_8_1_0 0
x_1_8_1_1 0
x_1_8_1_2 0
x_1_8_2_0 0
x_1_8_2_1 0
x_1_8_2_2 0
x_1_8_3_0 0
x_1_8_3_1 0
x_1_8_3_2 0
x_1_9_0_0 0
x_1_9_0_1 0
x_1_9_0_2 0
x_1_9_1_0 0
x_1_9_1_1 0
x_1_9_1_2 0
x_1_9_2_0 0
x_1_9_2_1 0
x_1_9_2_2 0
x_1_9_3_0 0
x_1_9_3_1 0
x_1_9_3_2 0
x_1_10_0_0 0
x_1_10_0_1 0
x_1_10_0_2 0
x_1_10_1_0 0
x_1_10_1_1 0
x_1_10_1_2 0
x_1_10_2_0 0
x_1_10_2_1 0
x_1_10_2_2 0
x_1_10_3_0 0
x_1_10_3_1 0
x_1_10_3_2 0
x_2_3_0_0 0
x_2_3_0_1 0
x_2_3_0_2 0
x_2_3_1_0 0
x_2_3_1_1 0
x_2_3_1_2 0
x_2_3_2_0 0
x_2_3_2_1 0
x_2_3_2_2 0
x_2_3_3_0 0
x_2_3_3_1 0
x_2_3_3_2 0
x_2_4_0_0 0
x_2_4_0_1 0
x_2_4_0_2 0
x_2_4_1_0 0
x_2_4_1_1 0
x_2_4_1_2 0
x_2_4_2_0 0
x_2_4_2_1 0
x_2_4_2_2 0
x_2_4_3_0 0
x_2_4_3_1 0
x_2_4_3_2 0
x_2_5_0_0 0
x_2_5_0_1 0
x_2_5_0_2 0
x_2_5_1_0 0
x_2_5_1_1 0
x_2_5_1_2 0
x_2_5_2_0 0
x_2_5_2_1 0
x_2_5_2_2 0
x_2_5_3_0 0
x_2_5_3_1 0
x_2_5_3_2 0
x_2_6_0_0 0
x_2_6_0_1 9.9999999999999989e-01
x_2_6_0_2 0
x_2_6_1_0 0
x_2_6_1_1 0
x_2_6_1_2 0
x_2_6_2_0 0
x_2_6_2_1 0
x_2_6_2_2 0
x_2_6_3_0 0
x_2_6_3_1 0
x_2_6_3_2 0
x_2_7_0_0 0
x_2_7_0_1 0
x_2_7_0_2 0
x_2_7_1_0 0
x_2_7_1_1 3.1918911957973251e-16
x_2_7_1_2 0
x_2_7_2_0 0
x_2_7_2_1 0
x_2_7_2_2 0
x_2_7_3_0 0
x_2_7_3_1 0
x_2_7_3_2 0
x_2_8_0_0 0
x_2_8_0_1 0
x_2_8_0_2 0
x_2_8_1_0 0
x_2_8_1_1 0
x_2_8_1_2 0
x_2_8_2_0 0
x_2_8_2_1 0
x_2_8_2_2 0
x_2_8_3_0 0
x_2_8_3_1 0
x_2_8_3_2 0
x_2_9_0_0 0
x_2_9_0_1 0
x_2_9_0_2 0
x_2_9_1_0 0
x_2_9_1_1 0
x_2_9_1_2 0
x_2_9_2_0 0
x_2_9_2_1 0
x_2_9_2_2 0
x_2_9_3_0 0
x_2_9_3_1 0
x_2_9_3_2 0
x_2_10_0_0 0
x_2_10_0_1 0
x_2_10_0_2 0
x_2_10_1_0 0
x_2_10_1_1 0
x_2_10_1_2 0
x_2_10_2_0 0
x_2_10_2_1 0
x_2_10_2_2 0
x_2_10_3_0 0
x_2_10_3_1 0
x_2_10_3_2 0
x_3_4_0_0 0
x_3_4_0_1 0
x_3_4_0_2 0
x_3_4_1_0 0
x_3_4_1_1 0
x_3_4_1_2 0
x_3_4_2_0 0
x_3_4_2_1 0
x_3_4_2_2 0
x_3_4_3_0 0
x_3_4_3_1 0
x_3_4_3_2 0
x_3_5_0_0 0
x_3_5_0_1 0
x_3_5_0_2 0
x_3_5_1_0 0
x_3_5_1_1 0
x_3_5_1_2 0
x_3_5_2_0 0
x_3_5_2_1 0
x_3_5_2_2 0
x_3_5_3_0 0
x_3_5_3_1 0
x_3_5_3_2 0
x_3_6_0_0 0
x_3_6_0_1 0
x_3_6_0_2 0
x_3_6_1_0 1
x_3_6_1_1 0
x_3_6_1_2 0
x_3_6_2_0 0
x_3_6_2_1 0
x_3_6_2_2 0
x_3_6_3_0 0
x_3_6_3_1 0
x_3_6_3_2 0
x_3_7_0_0 0
x_3_7_0_1 0
x_3_7_0_2 0
x_3_7_1_0 0
x_3_7_1_1 0
x_3_7_1_2 0
x_3_7_2_0 0
x_3_7_2_1 0
x_3_7_2_2 0
x_3_7_3_0 0
x_3_7_3_1 0
x_3_7_3_2 0
x_3_8_0_0 0
x_3_8_0_1 0
x_3_8_0_2 0
x_3_8_1_0 0
x_3_8_1_1 0
x_3_8_1_2 0
x_3_8_2_0 0
x_3_8_2_1 0
x_3_8_2_2 0
x_3_8_3_0 0
x_3_8_3_1 0
x_3_8_3_2 0
x_3_9_0_0 0
x_3_9_0_1 0
x_3_9_0_2 0
x_3_9_1_0 0
x_3_9_1_1 0
x_3_9_1_2 0
x_3_9_2_0 0
x_3_9_2_1 0
x_3_9_2_2 0
x_3_9_3_0 0
x_3_9_3_1 0
x_3_9_3_2 0
x_3_10_0_0 0
x_3_10_0_1 0
x_3_10_0_2 0
x_3_10_1_0 0
x_3_10_1_1 0
x_3_10_1_2 0
x_3_10_2_0 0
x_3_10_2_1 0
x_3_10_2_2 0
x_3_10_3_0 0
x_3_10_3_1 0
x_3_10_3_2 0
x_4_5_0_0 0
x_4_5_0_1 1.3600232051658168e-15
x_4_5_0_2 0
x_4_5_1_0 0
x_4_5_1_1 0
x_4_5_1_2 0
x_4_5_2_0 9.9999999999999956e-01
x_4_5_2_1 0
x_4_5_2_2 0
x_4_5_3_0 0
x_4_5_3_1 0
x_4_5_3_2 0
x_4_6_0_0 0
x_4_6_0_1 0
x_4_6_0_2 0
x_4_6_1_0 0
x_4_6_1_1 0
x_4_6_1_2 0
x_4_6_2_0 0
x_4_6_2_1 0
x_4_6_2_2 0
x_4_6_3_0 0
x_4_6_3_1 0
x_4_6_3_2 0
x_4_7_0_0 0
x_4_7_0_1 0
x_4_7_0_2 0
x_4_7_1_0 0
x_4_7_1_1 0
x_4_7_1_2 0
x_4_7_2_0 0
x_4_7_2_1 0
x_4_7_2_2 0
x_4_7_3_0 0
x_4_7_3_1 0
x_4_7_3_2 0
x_4_8_0_0 0
x_4_8_0_1 0
x_4_8_0_2 0
x_4_8_1_0 0
x_4_8_1_1 0
x_4_8_1_2 0
x_4_8_2_0 0
x_4_8_2_1 0
x_4_8_2_2 0
x_4_8_3_0 0
x_4_8_3_1 0
x_4_8_3_2 0
x_4_9_0_0 0
x_4_9_0_1 0
x_4_9_0_2 0
x_4_9_1_0 0
x_4_9_1_1 0
x_4_9_1_2 0
x_4_9_2_0 9.9999999999999711e-01
x_4_9_2_1 0
x_4_9_2_2 0
x_4_9_3_0 0
x_4_9_3_1 0
x_4_9_3_2 0
x_4_10_0_0 0
x_4_10_0_1 0
x_4_10_0_2 0
x_4_10_1_0 0
x_4_10_1_1 0
x_4_10_1_2 0
x_4_10_2_0 0
x_4_10_2_1 0
x_4_10_2_2 0
x_4_10_3_0 0
x_4_10_3_1 0
x_4_10_3_2 0
x_5_6_0_0 0
x_5_6_0_1 9.9999999999999967e-01
x_5_6_0_2 0
x_5_6_1_0 0
x_5_6_1_1 -2.2204460492503131e-16
x_5_6_1_2 0
x_5_6_2_0 0
x_5_6_2_1 0
x_5_6_2_2 0
x_5_6_3_0 0
x_5_6_3_1 0
x_5_6_3_2 0
x_5_7_0_0 0
x_5_7_0_1 0
x_5_7_0_2 0
x_5_7_1_0 0
x_5_7_1_1 0
x_5_7_1_2 0
x_5_7_2_0 0
x_5_7_2_1 0
x_5_7_2_2 0
x_5_7_3_0 0
x_5_7_3_1 0
x_5_7_3_2 0
x_5_8_0_0 0
x_5_8_0_1 0
x_5_8_0_2 0
x_5_8_1_0 0
x_5_8_1_1 0
x_5_8_1_2 0
x_5_8_2_0 0
x_5_8_2_1 0
x_5_8_2_2 0
x_5_8_3_0 0
x_5_8_3_1 0
x_5_8_3_2 0
x_5_9_0_0 0
x_5_9_0_1 0
x_5_9_0_2 0
x_5_9_1_0 0
x_5_9_1_1 1.6375789613221059e-15
x_5_9_1_2 0
x_5_9_2_0 0
x_5_9_2_1 0
x_5_9_2_2 0
x_5_9_3_0 0
x_5_9_3_1 0
x_5_9_3_2 0
x_5_10_0_0 0
x_5_10_0_1 0
x_5_10_0_2 0
x_5_10_1_0 0
x_5_10_1_1 0
x_5_10_1_2 0
x_5_10_2_0 0
x_5_10_2_1 0
x_5_10_2_2 0
x_5_10_3_0 0
x_5_10_3_1 0
x_5_10_3_2 0
x_6_7_0_0 0
x_6_7_0_1 0
x_6_7_0_2 0
x_6_7_1_0 0
x_6_7_1_1 0
x_6_7_1_2 0
x_6_7_2_0 0
x_6_7_2_1 0
x_6_7_2_2 0
x_6_7_3_0 0
x_6_7_3_1 0
x_6_7_3_2 0
x_6_8_0_0 0
x_6_8_0_1 0
x_6_8_0_2 0
x_6_8_1_0 0
x_6_8_1_1 0
x_6_8_1_2 0
x_6_8_2_0 0
x_6_8_2_1 0
x_6_8_2_2 0
x_6_8_3_0 0
x_6_8_3_1 0
x_6_8_3_2 0
x_6_9_0_0 0
x_6_9_0_1 0
x_6_9_0_2 0
x_6_9_1_0 0
x_6_9_1_1 0
x_6_9_1_2 0
x_6_9_2_0 0
x_6_9_2_1 0
x_6_9_2_2 0
x_6_9_3_0 0
x_6_9_3_1 0
x_6_9_3_2 0
x_6_10_0_0 0
x_6_10_0_1 0
x_6_10_0_2 0
x_6_10_1_0 0
x_6_10_1_1 0
x_6_10_1_2 0
x_6_10_2_0 0
x_6_10_2_1 0
x_6_10_2_2 0
x_6_10_3_0 0
x_6_10_3_1 0
x_6_10_3_2 0
x_7_8_0_0 0
x_7_8_0_1 0
x_7_8_0_2 0
x_7_8_1_0 0
x_7_8_1_1 1
x_7_8_1_2 0
x_7_8_2_0 1.2628786905111156e-15
x_7_8_2_1 0
x_7_8_2_2 0
x_7_8_3_0 0
x_7_8_3_1 0
x_7_8_3_2 0
x_7_9_0_0 0
x_7_9_0_1 0
x_7_9_0_2 0
x_7_9_1_0 0
x_7_9_1_1 0
x_7_9_1_2 0
x_7_9_2_0 0
x_7_9_2_1 0
x_7_9_2_2 0
x_7_9_3_0 0
x_7_9_3_1 0
x_7_9_3_2 0
x_7_10_0_0 0
x_7_10_0_1 0
x_7_10_0_2 0
x_7_10_1_0 0
x_7_10_1_1 0
x_7_10_1_2 0
x_7_10_2_0 0
x_7_10_2_1 0
x_7_10_2_2 0
x_7_10_3_0 0
x_7_10_3_1 0
x_7_10_3_2 0
x_8_9_0_0 0
x_8_9_0_1 0
x_8_9_0_2 0
x_8_9_1_0 0
x_8_9_1_1 0
x_8_9_1_2 0
x_8_9_2_0 0
x_8_9_2_1 0
x_8_9_2_2 0
x_8_9_3_0 0
x_8_9_3_1 0
x_8_9_3_2 0
x_8_10_0_0 0
x_8_10_0_1 0
x_8_10_0_2 0
x_8_10_1_0 0
x_8_10_1_1 0
x_8_10_1_2 0
x_8_10_2_0 0
x_8_10_2_1 0
x_8_10_2_2 0
x_8_10_3_0 0
x_8_10_3_1 0
x_8_10_3_2 0
x_9_10_0_0 0
x_9_10_0_1 0
x_9_10_0_2 7.4384942649885488e-15
x_9_10_1_0 0
x_9_10_1_1 0
x_9_10_1_2 0
x_9_10_2_0 9.9999999999999556e-01
x_9_10_2_1 0
x_9_10_2_2 0
x_9_10_3_0 0
x_9_10_3_1 0
x_9_10_3_2 0
